p cnf 200 1844
1 2 3 4 5 0
6 7 8 9 10 0
11 12 13 14 15 0
16 17 18 19 20 0
21 22 23 24 25 0
26 27 28 29 30 0
31 32 33 34 35 0
36 37 38 39 40 0
41 42 43 44 45 0
46 47 48 49 50 0
51 52 53 54 55 0
56 57 58 59 60 0
61 62 63 64 65 0
66 67 68 69 70 0
71 72 73 74 75 0
76 77 78 79 80 0
81 82 83 84 85 0
86 87 88 89 90 0
91 92 93 94 95 0
96 97 98 99 100 0
101 102 103 104 105 0
106 107 108 109 110 0
111 112 113 114 115 0
116 117 118 119 120 0
121 122 123 124 125 0
126 127 128 129 130 0
131 132 133 134 135 0
136 137 138 139 140 0
141 142 143 144 145 0
146 147 148 149 150 0
151 152 153 154 155 0
156 157 158 159 160 0
161 162 163 164 165 0
166 167 168 169 170 0
171 172 173 174 175 0
176 177 178 179 180 0
181 182 183 184 185 0
186 187 188 189 190 0
191 192 193 194 195 0
196 197 198 199 200 0
-1 -2 0
-1 -3 0
-1 -4 0
-1 -5 0
-2 -3 0
-2 -4 0
-2 -5 0
-3 -4 0
-3 -5 0
-4 -5 0
-6 -7 0
-6 -8 0
-6 -9 0
-6 -10 0
-7 -8 0
-7 -9 0
-7 -10 0
-8 -9 0
-8 -10 0
-9 -10 0
-11 -12 0
-11 -13 0
-11 -14 0
-11 -15 0
-12 -13 0
-12 -14 0
-12 -15 0
-13 -14 0
-13 -15 0
-14 -15 0
-16 -17 0
-16 -18 0
-16 -19 0
-16 -20 0
-17 -18 0
-17 -19 0
-17 -20 0
-18 -19 0
-18 -20 0
-19 -20 0
-21 -22 0
-21 -23 0
-21 -24 0
-21 -25 0
-22 -23 0
-22 -24 0
-22 -25 0
-23 -24 0
-23 -25 0
-24 -25 0
-26 -27 0
-26 -28 0
-26 -29 0
-26 -30 0
-27 -28 0
-27 -29 0
-27 -30 0
-28 -29 0
-28 -30 0
-29 -30 0
-31 -32 0
-31 -33 0
-31 -34 0
-31 -35 0
-32 -33 0
-32 -34 0
-32 -35 0
-33 -34 0
-33 -35 0
-34 -35 0
-36 -37 0
-36 -38 0
-36 -39 0
-36 -40 0
-37 -38 0
-37 -39 0
-37 -40 0
-38 -39 0
-38 -40 0
-39 -40 0
-41 -42 0
-41 -43 0
-41 -44 0
-41 -45 0
-42 -43 0
-42 -44 0
-42 -45 0
-43 -44 0
-43 -45 0
-44 -45 0
-46 -47 0
-46 -48 0
-46 -49 0
-46 -50 0
-47 -48 0
-47 -49 0
-47 -50 0
-48 -49 0
-48 -50 0
-49 -50 0
-51 -52 0
-51 -53 0
-51 -54 0
-51 -55 0
-52 -53 0
-52 -54 0
-52 -55 0
-53 -54 0
-53 -55 0
-54 -55 0
-56 -57 0
-56 -58 0
-56 -59 0
-56 -60 0
-57 -58 0
-57 -59 0
-57 -60 0
-58 -59 0
-58 -60 0
-59 -60 0
-61 -62 0
-61 -63 0
-61 -64 0
-61 -65 0
-62 -63 0
-62 -64 0
-62 -65 0
-63 -64 0
-63 -65 0
-64 -65 0
-66 -67 0
-66 -68 0
-66 -69 0
-66 -70 0
-67 -68 0
-67 -69 0
-67 -70 0
-68 -69 0
-68 -70 0
-69 -70 0
-71 -72 0
-71 -73 0
-71 -74 0
-71 -75 0
-72 -73 0
-72 -74 0
-72 -75 0
-73 -74 0
-73 -75 0
-74 -75 0
-76 -77 0
-76 -78 0
-76 -79 0
-76 -80 0
-77 -78 0
-77 -79 0
-77 -80 0
-78 -79 0
-78 -80 0
-79 -80 0
-81 -82 0
-81 -83 0
-81 -84 0
-81 -85 0
-82 -83 0
-82 -84 0
-82 -85 0
-83 -84 0
-83 -85 0
-84 -85 0
-86 -87 0
-86 -88 0
-86 -89 0
-86 -90 0
-87 -88 0
-87 -89 0
-87 -90 0
-88 -89 0
-88 -90 0
-89 -90 0
-91 -92 0
-91 -93 0
-91 -94 0
-91 -95 0
-92 -93 0
-92 -94 0
-92 -95 0
-93 -94 0
-93 -95 0
-94 -95 0
-96 -97 0
-96 -98 0
-96 -99 0
-96 -100 0
-97 -98 0
-97 -99 0
-97 -100 0
-98 -99 0
-98 -100 0
-99 -100 0
-101 -102 0
-101 -103 0
-101 -104 0
-101 -105 0
-102 -103 0
-102 -104 0
-102 -105 0
-103 -104 0
-103 -105 0
-104 -105 0
-106 -107 0
-106 -108 0
-106 -109 0
-106 -110 0
-107 -108 0
-107 -109 0
-107 -110 0
-108 -109 0
-108 -110 0
-109 -110 0
-111 -112 0
-111 -113 0
-111 -114 0
-111 -115 0
-112 -113 0
-112 -114 0
-112 -115 0
-113 -114 0
-113 -115 0
-114 -115 0
-116 -117 0
-116 -118 0
-116 -119 0
-116 -120 0
-117 -118 0
-117 -119 0
-117 -120 0
-118 -119 0
-118 -120 0
-119 -120 0
-121 -122 0
-121 -123 0
-121 -124 0
-121 -125 0
-122 -123 0
-122 -124 0
-122 -125 0
-123 -124 0
-123 -125 0
-124 -125 0
-126 -127 0
-126 -128 0
-126 -129 0
-126 -130 0
-127 -128 0
-127 -129 0
-127 -130 0
-128 -129 0
-128 -130 0
-129 -130 0
-131 -132 0
-131 -133 0
-131 -134 0
-131 -135 0
-132 -133 0
-132 -134 0
-132 -135 0
-133 -134 0
-133 -135 0
-134 -135 0
-136 -137 0
-136 -138 0
-136 -139 0
-136 -140 0
-137 -138 0
-137 -139 0
-137 -140 0
-138 -139 0
-138 -140 0
-139 -140 0
-141 -142 0
-141 -143 0
-141 -144 0
-141 -145 0
-142 -143 0
-142 -144 0
-142 -145 0
-143 -144 0
-143 -145 0
-144 -145 0
-146 -147 0
-146 -148 0
-146 -149 0
-146 -150 0
-147 -148 0
-147 -149 0
-147 -150 0
-148 -149 0
-148 -150 0
-149 -150 0
-151 -152 0
-151 -153 0
-151 -154 0
-151 -155 0
-152 -153 0
-152 -154 0
-152 -155 0
-153 -154 0
-153 -155 0
-154 -155 0
-156 -157 0
-156 -158 0
-156 -159 0
-156 -160 0
-157 -158 0
-157 -159 0
-157 -160 0
-158 -159 0
-158 -160 0
-159 -160 0
-161 -162 0
-161 -163 0
-161 -164 0
-161 -165 0
-162 -163 0
-162 -164 0
-162 -165 0
-163 -164 0
-163 -165 0
-164 -165 0
-166 -167 0
-166 -168 0
-166 -169 0
-166 -170 0
-167 -168 0
-167 -169 0
-167 -170 0
-168 -169 0
-168 -170 0
-169 -170 0
-171 -172 0
-171 -173 0
-171 -174 0
-171 -175 0
-172 -173 0
-172 -174 0
-172 -175 0
-173 -174 0
-173 -175 0
-174 -175 0
-176 -177 0
-176 -178 0
-176 -179 0
-176 -180 0
-177 -178 0
-177 -179 0
-177 -180 0
-178 -179 0
-178 -180 0
-179 -180 0
-181 -182 0
-181 -183 0
-181 -184 0
-181 -185 0
-182 -183 0
-182 -184 0
-182 -185 0
-183 -184 0
-183 -185 0
-184 -185 0
-186 -187 0
-186 -188 0
-186 -189 0
-186 -190 0
-187 -188 0
-187 -189 0
-187 -190 0
-188 -189 0
-188 -190 0
-189 -190 0
-191 -192 0
-191 -193 0
-191 -194 0
-191 -195 0
-192 -193 0
-192 -194 0
-192 -195 0
-193 -194 0
-193 -195 0
-194 -195 0
-196 -197 0
-196 -198 0
-196 -199 0
-196 -200 0
-197 -198 0
-197 -199 0
-197 -200 0
-198 -199 0
-198 -200 0
-199 -200 0
-3 -7 0
-5 -8 0
-3 -13 0
-4 -11 0
-5 -19 0
-3 -19 0
-4 -25 0
-5 -25 0
-2 -35 0
-1 -32 0
-5 -36 0
-3 -39 0
-5 -41 0
-1 -44 0
-5 -50 0
-3 -50 0
-2 -53 0
-3 -54 0
-4 -57 0
-4 -60 0
-3 -61 0
-2 -64 0
-4 -68 0
-1 -70 0
-5 -72 0
-2 -74 0
-4 -78 0
-5 -80 0
-5 -88 0
-5 -87 0
-1 -94 0
-4 -91 0
-1 -110 0
-4 -110 0
-3 -117 0
-1 -116 0
-5 -123 0
-4 -122 0
-3 -128 0
-4 -128 0
-2 -131 0
-4 -132 0
-4 -137 0
-3 -136 0
-3 -141 0
-2 -145 0
-3 -149 0
-1 -148 0
-4 -152 0
-2 -155 0
-3 -156 0
-2 -156 0
-1 -164 0
-1 -165 0
-3 -170 0
-1 -168 0
-3 -172 0
-3 -174 0
-3 -179 0
-5 -179 0
-2 -185 0
-2 -183 0
-1 -186 0
-5 -189 0
-3 -191 0
-1 -193 0
-5 -199 0
-1 -200 0
-8 -14 0
-10 -12 0
-6 -18 0
-8 -17 0
-8 -24 0
-8 -23 0
-10 -33 0
-9 -31 0
-6 -38 0
-9 -36 0
-6 -42 0
-10 -43 0
-8 -50 0
-9 -49 0
-9 -55 0
-9 -52 0
-10 -59 0
-8 -58 0
-10 -63 0
-6 -62 0
-7 -68 0
-8 -66 0
-6 -71 0
-7 -75 0
-8 -77 0
-8 -80 0
-10 -85 0
-8 -84 0
-7 -93 0
-9 -93 0
-10 -96 0
-9 -98 0
-10 -102 0
-8 -105 0
-8 -109 0
-7 -106 0
-8 -111 0
-8 -112 0
-10 -116 0
-10 -117 0
-9 -122 0
-6 -121 0
-10 -126 0
-10 -129 0
-6 -131 0
-7 -133 0
-9 -139 0
-7 -140 0
-8 -141 0
-9 -145 0
-7 -149 0
-10 -146 0
-7 -153 0
-8 -151 0
-6 -156 0
-8 -157 0
-10 -168 0
-10 -170 0
-8 -173 0
-6 -172 0
-7 -177 0
-10 -178 0
-7 -182 0
-10 -183 0
-8 -187 0
-6 -190 0
-6 -193 0
-8 -194 0
-8 -196 0
-10 -198 0
-11 -19 0
-13 -18 0
-14 -25 0
-14 -23 0
-12 -32 0
-15 -32 0
-11 -36 0
-11 -37 0
-14 -43 0
-14 -45 0
-12 -51 0
-13 -52 0
-13 -60 0
-11 -56 0
-12 -65 0
-14 -64 0
-11 -68 0
-15 -67 0
-14 -72 0
-15 -75 0
-15 -80 0
-11 -77 0
-14 -84 0
-11 -82 0
-15 -88 0
-12 -90 0
-13 -96 0
-12 -97 0
-15 -101 0
-12 -104 0
-12 -109 0
-15 -109 0
-13 -111 0
-11 -115 0
-15 -118 0
-13 -117 0
-13 -123 0
-13 -122 0
-13 -128 0
-11 -128 0
-12 -134 0
-15 -134 0
-14 -140 0
-13 -138 0
-12 -142 0
-12 -144 0
-12 -147 0
-13 -148 0
-12 -159 0
-12 -156 0
-11 -164 0
-13 -163 0
-15 -173 0
-13 -175 0
-15 -180 0
-15 -179 0
-12 -181 0
-14 -182 0
-14 -190 0
-14 -188 0
-14 -194 0
-11 -191 0
-13 -200 0
-15 -199 0
-18 -22 0
-19 -24 0
-17 -29 0
-20 -28 0
-20 -34 0
-19 -31 0
-18 -39 0
-18 -38 0
-17 -41 0
-19 -44 0
-19 -51 0
-19 -54 0
-18 -63 0
-19 -63 0
-16 -69 0
-19 -66 0
-18 -72 0
-19 -74 0
-18 -76 0
-20 -76 0
-17 -82 0
-19 -85 0
-20 -90 0
-20 -86 0
-16 -93 0
-18 -94 0
-16 -98 0
-18 -97 0
-18 -110 0
-19 -106 0
-16 -111 0
-17 -112 0
-17 -117 0
-17 -119 0
-19 -124 0
-20 -123 0
-17 -130 0
-20 -126 0
-18 -133 0
-16 -132 0
-20 -139 0
-18 -137 0
-20 -148 0
-17 -150 0
-19 -156 0
-20 -157 0
-17 -162 0
-19 -165 0
-16 -167 0
-18 -169 0
-19 -178 0
-18 -179 0
-19 -182 0
-20 -184 0
-20 -189 0
-19 -190 0
-18 -192 0
-17 -193 0
-18 -199 0
-17 -197 0
-21 -26 0
-24 -26 0
-25 -34 0
-23 -35 0
-23 -39 0
-21 -38 0
-25 -41 0
-22 -41 0
-24 -47 0
-22 -48 0
-23 -51 0
-23 -54 0
-22 -62 0
-22 -63 0
-24 -72 0
-23 -71 0
-24 -77 0
-23 -77 0
-22 -81 0
-25 -85 0
-24 -88 0
-23 -86 0
-22 -95 0
-21 -94 0
-22 -96 0
-23 -100 0
-25 -104 0
-21 -103 0
-21 -107 0
-25 -110 0
-23 -115 0
-23 -113 0
-25 -117 0
-21 -118 0
-25 -123 0
-21 -122 0
-24 -128 0
-25 -127 0
-24 -134 0
-21 -134 0
-25 -144 0
-24 -141 0
-25 -147 0
-24 -150 0
-22 -155 0
-22 -153 0
-21 -159 0
-21 -156 0
-22 -163 0
-24 -165 0
-24 -167 0
-24 -168 0
-23 -179 0
-22 -180 0
-24 -183 0
-25 -184 0
-21 -186 0
-24 -189 0
-24 -193 0
-22 -192 0
-24 -198 0
-23 -199 0
-30 -31 0
-30 -34 0
-29 -38 0
-27 -39 0
-29 -42 0
-29 -44 0
-27 -46 0
-27 -49 0
-29 -54 0
-26 -53 0
-26 -56 0
-26 -58 0
-28 -63 0
-30 -63 0
-27 -66 0
-26 -70 0
-26 -74 0
-30 -71 0
-27 -76 0
-28 -77 0
-28 -82 0
-29 -83 0
-30 -88 0
-27 -87 0
-29 -95 0
-27 -92 0
-29 -96 0
-27 -98 0
-27 -103 0
-30 -102 0
-26 -109 0
-29 -109 0
-27 -114 0
-30 -113 0
-28 -116 0
-26 -120 0
-30 -121 0
-28 -124 0
-27 -129 0
-27 -130 0
-29 -132 0
-26 -131 0
-28 -140 0
-30 -140 0
-27 -141 0
-27 -143 0
-30 -147 0
-27 -148 0
-29 -152 0
-30 -151 0
-28 -156 0
-26 -158 0
-29 -165 0
-29 -164 0
-30 -170 0
-28 -170 0
-29 -171 0
-26 -174 0
-26 -178 0
-27 -177 0
-28 -185 0
-29 -181 0
-26 -187 0
-27 -189 0
-26 -194 0
-26 -195 0
-33 -38 0
-35 -39 0
-33 -43 0
-32 -41 0
-34 -47 0
-35 -49 0
-35 -55 0
-33 -51 0
-34 -56 0
-34 -60 0
-33 -65 0
-34 -61 0
-33 -68 0
-32 -70 0
-32 -71 0
-33 -75 0
-34 -76 0
-31 -76 0
-33 -81 0
-33 -85 0
-34 -93 0
-33 -91 0
-34 -100 0
-35 -100 0
-33 -105 0
-33 -102 0
-35 -108 0
-33 -107 0
-31 -115 0
-35 -113 0
-35 -119 0
-31 -118 0
-35 -125 0
-31 -124 0
-35 -126 0
-33 -130 0
-35 -132 0
-31 -132 0
-33 -137 0
-33 -139 0
-35 -143 0
-32 -145 0
-33 -148 0
-32 -147 0
-35 -153 0
-32 -153 0
-31 -156 0
-35 -160 0
-34 -164 0
-32 -165 0
-34 -169 0
-32 -166 0
-32 -178 0
-33 -177 0
-31 -183 0
-32 -184 0
-31 -195 0
-34 -192 0
-32 -199 0
-34 -199 0
-38 -43 0
-36 -42 0
-37 -47 0
-39 -49 0
-39 -51 0
-36 -55 0
-36 -56 0
-36 -59 0
-37 -61 0
-36 -64 0
-36 -71 0
-36 -75 0
-36 -76 0
-40 -79 0
-40 -84 0
-38 -84 0
-40 -89 0
-36 -89 0
-36 -95 0
-40 -94 0
-39 -98 0
-39 -97 0
-39 -105 0
-39 -102 0
-37 -106 0
-38 -107 0
-39 -115 0
-38 -112 0
-40 -116 0
-40 -118 0
-36 -125 0
-39 -123 0
-38 -134 0
-36 -132 0
-39 -140 0
-39 -138 0
-40 -143 0
-39 -143 0
-39 -147 0
-37 -146 0
-37 -152 0
-38 -151 0
-37 -157 0
-37 -156 0
-37 -161 0
-38 -162 0
-40 -169 0
-37 -167 0
-40 -172 0
-38 -174 0
-36 -179 0
-37 -176 0
-40 -182 0
-36 -184 0
-38 -187 0
-39 -190 0
-37 -192 0
-37 -191 0
-36 -200 0
-39 -196 0
-43 -54 0
-41 -55 0
-43 -59 0
-44 -56 0
-41 -62 0
-44 -63 0
-44 -70 0
-45 -68 0
-45 -71 0
-41 -75 0
-44 -78 0
-43 -77 0
-41 -81 0
-43 -84 0
-41 -92 0
-41 -94 0
-42 -97 0
-43 -97 0
-44 -103 0
-41 -102 0
-45 -111 0
-41 -115 0
-42 -116 0
-43 -119 0
-43 -121 0
-44 -122 0
-44 -128 0
-43 -127 0
-42 -135 0
-42 -131 0
-45 -140 0
-43 -136 0
-42 -145 0
-45 -143 0
-45 -149 0
-44 -148 0
-43 -151 0
-42 -154 0
-43 -163 0
-42 -163 0
-42 -174 0
-44 -171 0
-43 -177 0
-43 -178 0
-41 -185 0
-42 -185 0
-43 -200 0
-42 -200 0
-47 -55 0
-48 -51 0
-50 -58 0
-48 -58 0
-50 -65 0
-47 -62 0
-50 -66 0
-49 -69 0
-50 -74 0
-48 -71 0
-47 -89 0
-46 -88 0
-46 -95 0
-48 -93 0
-48 -98 0
-50 -100 0
-50 -105 0
-50 -104 0
-50 -107 0
-47 -110 0
-47 -115 0
-49 -114 0
-46 -120 0
-46 -119 0
-46 -127 0
-50 -130 0
-46 -135 0
-50 -131 0
-47 -137 0
-48 -137 0
-49 -142 0
-48 -145 0
-47 -150 0
-50 -148 0
-47 -155 0
-48 -151 0
-46 -157 0
-46 -160 0
-46 -165 0
-46 -162 0
-50 -166 0
-49 -170 0
-50 -172 0
-50 -173 0
-46 -180 0
-46 -177 0
-48 -184 0
-46 -184 0
-47 -190 0
-50 -186 0
-49 -192 0
-47 -191 0
-47 -197 0
-49 -197 0
-55 -56 0
-52 -56 0
-51 -64 0
-52 -62 0
-52 -69 0
-53 -68 0
-55 -71 0
-54 -71 0
-52 -78 0
-55 -80 0
-53 -83 0
-54 -82 0
-51 -87 0
-55 -90 0
-52 -91 0
-53 -95 0
-54 -96 0
-54 -98 0
-51 -103 0
-53 -105 0
-54 -111 0
-52 -111 0
-51 -118 0
-53 -117 0
-53 -121 0
-55 -122 0
-51 -130 0
-54 -129 0
-54 -134 0
-53 -133 0
-52 -140 0
-53 -139 0
-52 -149 0
-51 -147 0
-51 -154 0
-54 -153 0
-53 -158 0
-54 -160 0
-52 -165 0
-52 -163 0
-51 -169 0
-55 -169 0
-54 -173 0
-51 -174 0
-54 -178 0
-51 -178 0
-52 -189 0
-53 -187 0
-54 -191 0
-55 -193 0
-53 -200 0
-55 -198 0
-56 -61 0
-60 -63 0
-60 -67 0
-57 -66 0
-58 -74 0
-59 -75 0
-60 -79 0
-58 -78 0
-60 -85 0
-59 -83 0
-57 -88 0
-60 -89 0
-57 -93 0
-56 -91 0
-60 -96 0
-56 -98 0
-56 -102 0
-58 -102 0
-60 -108 0
-57 -110 0
-59 -113 0
-56 -112 0
-57 -117 0
-58 -120 0
-58 -125 0
-56 -123 0
-57 -127 0
-58 -127 0
-60 -139 0
-57 -140 0
-59 -143 0
-58 -143 0
-59 -146 0
-60 -148 0
-57 -152 0
-60 -153 0
-57 -156 0
-58 -160 0
-60 -165 0
-57 -164 0
-58 -166 0
-59 -169 0
-56 -171 0
-59 -171 0
-60 -177 0
-57 -179 0
-60 -185 0
-58 -181 0
-59 -193 0
-57 -191 0
-59 -196 0
-60 -196 0
-62 -67 0
-63 -67 0
-64 -75 0
-63 -74 0
-64 -80 0
-61 -79 0
-64 -81 0
-62 -81 0
-63 -92 0
-63 -94 0
-61 -100 0
-65 -99 0
-65 -101 0
-61 -103 0
-63 -108 0
-61 -108 0
-65 -113 0
-61 -112 0
-64 -120 0
-64 -119 0
-65 -126 0
-61 -126 0
-64 -131 0
-62 -135 0
-63 -137 0
-64 -140 0
-61 -144 0
-62 -141 0
-63 -149 0
-63 -146 0
-63 -152 0
-64 -155 0
-62 -160 0
-63 -156 0
-65 -164 0
-62 -164 0
-65 -166 0
-62 -170 0
-61 -173 0
-61 -175 0
-62 -178 0
-62 -180 0
-61 -184 0
-65 -185 0
-64 -190 0
-62 -188 0
-65 -193 0
-64 -195 0
-62 -198 0
-65 -198 0
-66 -71 0
-67 -75 0
-69 -76 0
-70 -79 0
-69 -85 0
-68 -85 0
-69 -90 0
-70 -88 0
-69 -92 0
-68 -94 0
-68 -96 0
-69 -98 0
-68 -104 0
-70 -101 0
-66 -108 0
-69 -110 0
-68 -114 0
-70 -114 0
-66 -116 0
-67 -116 0
-69 -124 0
-68 -123 0
-68 -129 0
-70 -126 0
-66 -133 0
-70 -135 0
-66 -137 0
-68 -139 0
-68 -142 0
-66 -144 0
-68 -148 0
-67 -148 0
-66 -154 0
-69 -151 0
-68 -158 0
-69 -156 0
-66 -162 0
-69 -164 0
-66 -168 0
-68 -170 0
-69 -179 0
-70 -179 0
-70 -184 0
-69 -183 0
-66 -187 0
-67 -186 0
-69 -191 0
-70 -191 0
-70 -197 0
-69 -198 0
-72 -76 0
-73 -76 0
-71 -83 0
-72 -85 0
-74 -90 0
-71 -86 0
-74 -91 0
-74 -93 0
-72 -96 0
-72 -98 0
-73 -101 0
-73 -102 0
-72 -111 0
-72 -115 0
-73 -117 0
-72 -120 0
-75 -121 0
-73 -124 0
-71 -126 0
-73 -128 0
-72 -132 0
-72 -133 0
-74 -140 0
-71 -140 0
-75 -145 0
-74 -142 0
-73 -147 0
-74 -146 0
-74 -153 0
-75 -151 0
-74 -159 0
-72 -157 0
-75 -163 0
-75 -162 0
-72 -167 0
-73 -166 0
-72 -175 0
-75 -171 0
-73 -179 0
-74 -176 0
-75 -182 0
-72 -185 0
-74 -187 0
-72 -188 0
-73 -192 0
-74 -193 0
-76 -82 0
-80 -81 0
-80 -89 0
-79 -88 0
-77 -91 0
-77 -93 0
-79 -98 0
-80 -100 0
-80 -103 0
-80 -102 0
-80 -110 0
-78 -109 0
-78 -118 0
-76 -118 0
-77 -125 0
-80 -121 0
-78 -128 0
-80 -126 0
-79 -131 0
-76 -131 0
-76 -139 0
-76 -138 0
-79 -142 0
-76 -145 0
-80 -146 0
-77 -150 0
-76 -154 0
-78 -155 0
-79 -157 0
-80 -158 0
-80 -164 0
-79 -165 0
-76 -170 0
-78 -167 0
-77 -172 0
-80 -172 0
-80 -177 0
-76 -180 0
-76 -181 0
-79 -182 0
-79 -186 0
-77 -186 0
-77 -194 0
-77 -191 0
-76 -200 0
-80 -199 0
-84 -88 0
-83 -89 0
-85 -92 0
-81 -92 0
-82 -98 0
-83 -98 0
-85 -104 0
-81 -102 0
-81 -109 0
-81 -110 0
-82 -114 0
-84 -115 0
-81 -118 0
-81 -120 0
-85 -127 0
-82 -129 0
-81 -132 0
-84 -133 0
-85 -137 0
-81 -138 0
-81 -145 0
-82 -144 0
-81 -149 0
-83 -146 0
-85 -153 0
-85 -154 0
-81 -158 0
-82 -158 0
-84 -165 0
-83 -165 0
-84 -166 0
-84 -167 0
-81 -174 0
-84 -173 0
-85 -178 0
-83 -180 0
-83 -182 0
-84 -182 0
-83 -188 0
-82 -187 0
-81 -194 0
-81 -191 0
-81 -198 0
-84 -200 0
-90 -96 0
-86 -97 0
-86 -102 0
-88 -103 0
-90 -106 0
-89 -106 0
-86 -115 0
-90 -111 0
-88 -119 0
-88 -120 0
-90 -123 0
-90 -124 0
-87 -128 0
-88 -129 0
-89 -133 0
-87 -135 0
-90 -140 0
-88 -137 0
-87 -143 0
-87 -141 0
-90 -150 0
-87 -149 0
-90 -156 0
-90 -158 0
-86 -162 0
-87 -162 0
-87 -169 0
-88 -167 0
-86 -175 0
-90 -173 0
-90 -176 0
-89 -176 0
-86 -184 0
-87 -181 0
-87 -186 0
-88 -187 0
-89 -193 0
-90 -193 0
-90 -197 0
-87 -200 0
-91 -99 0
-93 -97 0
-95 -101 0
-91 -101 0
-91 -106 0
-94 -110 0
-94 -118 0
-93 -119 0
-95 -128 0
-93 -127 0
-95 -136 0
-92 -140 0
-95 -150 0
-95 -148 0
-94 -153 0
-92 -154 0
-95 -159 0
-91 -159 0
-91 -161 0
-92 -164 0
-93 -174 0
-95 -172 0
-94 -176 0
-94 -177 0
-93 -181 0
-94 -185 0
-94 -191 0
-92 -194 0
-93 -200 0
-95 -199 0
-98 -103 0
-99 -105 0
-100 -109 0
-98 -109 0
-100 -115 0
-98 -114 0
-100 -118 0
-99 -118 0
-99 -121 0
-99 -123 0
-99 -129 0
-96 -127 0
-99 -134 0
-97 -132 0
-100 -137 0
-96 -136 0
-98 -143 0
-100 -141 0
-98 -146 0
-99 -149 0
-97 -152 0
-100 -155 0
-98 -156 0
-98 -158 0
-99 -165 0
-97 -161 0
-97 -169 0
-99 -166 0
-96 -174 0
-99 -175 0
-96 -180 0
-98 -180 0
-96 -181 0
-100 -185 0
-99 -189 0
-98 -190 0
-100 -193 0
-100 -192 0
-97 -200 0
-100 -198 0
-104 -106 0
-103 -108 0
-103 -111 0
-105 -115 0
-104 -120 0
-104 -118 0
-105 -121 0
-102 -121 0
-103 -129 0
-101 -128 0
-101 -131 0
-104 -135 0
-101 -140 0
-103 -140 0
-101 -143 0
-104 -142 0
-101 -150 0
-105 -149 0
-101 -154 0
-101 -152 0
-103 -160 0
-105 -160 0
-103 -165 0
-102 -162 0
-102 -170 0
-105 -169 0
-105 -173 0
-104 -175 0
-104 -180 0
-101 -178 0
-103 -185 0
-104 -183 0
-101 -188 0
-103 -186 0
-102 -193 0
-103 -195 0
-103 -199 0
-105 -198 0
-108 -114 0
-110 -114 0
-108 -118 0
-110 -117 0
-110 -125 0
-108 -121 0
-108 -126 0
-108 -128 0
-108 -132 0
-107 -135 0
-110 -140 0
-107 -136 0
-108 -144 0
-107 -145 0
-110 -147 0
-110 -148 0
-109 -153 0
-106 -155 0
-106 -160 0
-108 -156 0
-109 -163 0
-106 -164 0
-110 -169 0
-109 -169 0
-110 -174 0
-110 -172 0
-109 -178 0
-107 -180 0
-110 -186 0
-106 -187 0
-106 -194 0
-107 -193 0
-106 -197 0
-109 -196 0
-112 -124 0
-115 -124 0
-113 -130 0
-111 -126 0
-113 -134 0
-114 -134 0
-115 -137 0
-114 -139 0
-115 -144 0
-113 -142 0
-113 -148 0
-114 -150 0
-111 -153 0
-111 -154 0
-112 -161 0
-115 -164 0
-111 -169 0
-113 -170 0
-111 -174 0
-112 -173 0
-114 -176 0
-112 -178 0
-113 -188 0
-111 -190 0
-115 -194 0
-111 -193 0
-114 -196 0
-111 -200 0
-116 -126 0
-120 -126 0
-119 -131 0
-120 -131 0
-119 -138 0
-116 -140 0
-120 -143 0
-116 -141 0
-119 -146 0
-119 -150 0
-116 -152 0
-120 -151 0
-117 -158 0
-116 -158 0
-117 -164 0
-118 -161 0
-119 -166 0
-118 -170 0
-116 -171 0
-119 -174 0
-118 -176 0
-116 -180 0
-117 -187 0
-117 -188 0
-117 -192 0
-120 -193 0
-119 -196 0
-120 -196 0
-125 -130 0
-125 -129 0
-125 -136 0
-122 -137 0
-123 -141 0
-121 -143 0
-123 -148 0
-124 -147 0
-122 -151 0
-122 -154 0
-122 -159 0
-123 -157 0
-123 -163 0
-125 -162 0
-124 -167 0
-122 -167 0
-121 -173 0
-125 -173 0
-121 -178 0
-125 -177 0
-121 -183 0
-122 -184 0
-122 -187 0
-121 -189 0
-123 -192 0
-123 -193 0
-125 -196 0
-124 -198 0
-126 -131 0
-130 -134 0
-130 -143 0
-126 -143 0
-127 -154 0
-130 -152 0
-128 -160 0
-126 -156 0
-130 -164 0
-128 -164 0
-128 -167 0
-128 -168 0
-129 -171 0
-126 -173 0
-126 -187 0
-129 -188 0
-128 -193 0
-127 -194 0
-129 -199 0
-128 -200 0
-133 -136 0
-135 -140 0
-135 -145 0
-131 -144 0
-135 -147 0
-133 -148 0
-132 -158 0
-132 -157 0
-132 -162 0
-134 -165 0
-134 -169 0
-132 -169 0
-132 -174 0
-132 -172 0
-133 -179 0
-134 -180 0
-133 -184 0
-132 -184 0
-131 -188 0
-131 -187 0
-134 -191 0
-131 -195 0
-132 -200 0
-132 -198 0
-136 -145 0
-140 -144 0
-138 -149 0
-139 -148 0
-139 -154 0
-140 -151 0
-136 -157 0
-137 -156 0
-139 -161 0
-138 -162 0
-137 -168 0
-140 -169 0
-138 -175 0
-140 -175 0
-138 -180 0
-139 -179 0
-140 -184 0
-139 -184 0
-139 -187 0
-137 -187 0
-136 -195 0
-138 -191 0
-138 -197 0
-138 -199 0
-142 -149 0
-144 -149 0
-143 -155 0
-143 -154 0
-143 -156 0
-145 -156 0
-141 -163 0
-142 -165 0
-142 -168 0
-142 -170 0
-143 -174 0
-142 -174 0
-142 -179 0
-141 -178 0
-143 -182 0
-145 -182 0
-141 -186 0
-144 -187 0
-142 -195 0
-142 -194 0
-141 -200 0
-145 -200 0
-149 -153 0
-147 -153 0
-146 -160 0
-149 -160 0
-149 -165 0
-148 -165 0
-150 -168 0
-147 -168 0
-148 -175 0
-147 -175 0
-150 -177 0
-148 -177 0
-149 -189 0
-146 -189 0
-148 -194 0
-149 -191 0
-148 -200 0
-148 -199 0
-155 -159 0
-151 -157 0
-154 -161 0
-151 -161 0
-153 -173 0
-155 -172 0
-154 -179 0
-151 -176 0
-151 -185 0
-153 -182 0
-154 -189 0
-151 -188 0
-154 -193 0
-152 -195 0
-152 -199 0
-153 -197 0
-156 -170 0
-157 -168 0
-158 -179 0
-159 -179 0
-157 -182 0
-158 -184 0
-158 -189 0
-159 -186 0
-160 -193 0
-157 -195 0
-157 -198 0
-158 -200 0
-163 -169 0
-165 -167 0
-163 -173 0
-161 -172 0
-161 -184 0
-162 -183 0
-161 -190 0
-165 -188 0
-164 -198 0
-162 -200 0
-166 -175 0
-168 -171 0
-170 -176 0
-170 -180 0
-168 -188 0
-168 -189 0
-168 -195 0
-167 -192 0
-167 -197 0
-169 -200 0
-175 -176 0
-175 -180 0
-171 -182 0
-172 -184 0
-175 -188 0
-172 -188 0
-173 -193 0
-171 -191 0
-175 -199 0
-173 -200 0
-179 -181 0
-178 -184 0
-177 -187 0
-177 -189 0
-178 -192 0
-177 -191 0
-180 -196 0
-179 -198 0
-181 -188 0
-185 -190 0
-182 -193 0
-183 -192 0
-183 -200 0
-181 -197 0
-190 -195 0
-189 -191 0
-187 -197 0
-189 -197 0
-195 -197 0
-193 -196 0
